multiobj/instances/reallike/Ter-rl-5-2-0.00-1.0-2.in
5 2
0 46 118 40 96 
46 0 88 10 53 
118 88 0 85 53 
40 10 85 0 56 
96 53 53 56 0 
0 0 67 0 328 
0 0 0 370 40639 
67 0 0 3297 0 
0 370 3297 0 0 
328 40639 0 0 0 
0 0 0 0 0 
0 0 0 1 4015 
0 0 0 0 0 
0 1 0 0 0 
0 4015 0 0 0 
