multiobj/solutions/reallike/Ter-rl-5-2-0.00-1.0-2.out
2 2
0 1 2 4 3 
1243534 80406 
2 1 4 0 3 
1542706 80392 
